networks/rf_174_2994/rf_174_2994-lower.txt
Number of groups: 128
Flow 1: {1 5 0} 
Flow 9: {1 4 0} {4 33 1} {33 34 2} {34 121 3} 
Flow 22: {2 1 0} {1 3 1} {3 18 2} {18 105 3} 
Flow 32: {2 20 0} {20 9 1} {9 75 2} {75 162 3} 
Flow 40: {1 6 0} {6 93 1} 
Flow 43: {1 9 0} {9 96 1} 
Flow 50: {3 19 0} 
Flow 51: {3 20 0} {20 107 1} 
Flow 88: {1 7 0} {7 79 1} 
Flow 156: {6 8 0} 
Flow 212: {7 8 0} {8 19 1} 
Flow 215: {53 25 0} {25 112 1} 
Flow 217: {29 22 0} {22 27 1} 
Flow 231: {2 11 0} {11 13 1} {13 50 2} {50 137 3} 
Flow 250: {8 7 0} {7 2 1} {2 5 2} {5 92 3} 
Flow 252: {8 1 3} 
Flow 258: {8 20 0} {20 4 1} 
Flow 264: {19 9 0} {9 47 1} {47 87 2} {87 174 3} 
Flow 391: {13 11 3} {11 2 4} 
Flow 423: {81 66 0} {66 65 1} 
Flow 482: {15 12 0} {12 99 1} 
Flow 493: {15 13 0} 
Flow 524: {40 24 0} 
Flow 547: {12 14 0} {14 56 1} {56 54 2} {54 141 3} 
Flow 584: {80 30 0} 
Flow 588: {17 12 0} {12 13 1} {13 40 2} {40 36 3} {36 123 4} 
Flow 594: {54 57 0} {57 68 1} {68 155 2} 
Flow 609: {18 3 2} {3 1 3} {1 8 4} 
Flow 611: {1 10 0} 
Flow 631: {19 4 0} {4 40 1} {40 28 2} {28 39 3} {39 126 4} 
Flow 652: {18 9 0} {9 58 1} {58 46 2} {46 78 3} {78 165 4} 
Flow 660: {10 1 0} 
Flow 740: {40 4 0} {4 19 1} {19 106 2} 
Flow 754: {23 28 0} {28 37 1} 
Flow 755: {28 38 0} {38 125 1} 
Flow 782: {24 36 0} {36 43 1} {43 41 2} 
Flow 806: {25 53 0} {53 36 1} {36 24 2} {24 111 3} 
Flow 809: {25 54 0} 
Flow 834: {70 73 0} {73 80 1} {80 167 2} 
Flow 845: {30 80 0} {80 29 1} {29 41 2} 
Flow 857: {54 25 0} 
Flow 858: {30 83 0} {83 26 1} 
Flow 888: {30 73 0} {73 70 1} {70 157 2} 
Flow 900: {30 22 0} {22 21 1} {21 23 2} {23 85 3} {85 172 4} 
Flow 964: {34 33 0} {33 4 1} {4 43 2} {43 37 3} 
Flow 982: {34 48 0} {48 82 1} {82 66 2} {66 64 3} 
Flow 992: {77 164 0} 
Flow 1005: {35 7 0} {7 94 1} 
Flow 1010: {35 11 0} {11 1 1} 
Flow 1030: {10 20 0} 
Flow 1031: {35 6 0} 
Flow 1062: {37 28 0} {28 22 1} 
Flow 1065: {33 31 0} {31 118 1} 
Flow 1086: {28 40 0} {40 13 1} {13 16 2} {16 63 3} {63 150 4} 
Flow 1090: {28 36 0} {36 53 1} {53 54 2} 
Flow 1093: {37 41 0} {41 46 1} {46 71 2} {71 158 3} 
Flow 1100: {37 43 0} {43 4 1} {4 81 2} {81 168 3} 
Flow 1121: {38 28 0} {28 24 1} {24 21 2} {21 108 3} 
Flow 1129: {33 32 0} {32 119 1} 
Flow 1134: {38 43 0} {43 36 1} {36 40 2} {40 127 3} 
Flow 1156: {38 41 0} {41 47 1} {47 6 2} {6 79 3} {79 166 4} 
Flow 1230: {42 43 0} 
Flow 1252: {42 38 0} 
Flow 1270: {42 41 0} {41 29 1} {29 80 2} {80 83 3} {83 170 4} 
Flow 1380: {45 41 0} {41 38 1} 
Flow 1387: {45 67 0} {67 59 1} {59 52 2} {52 51 3} {51 138 4} 
Flow 1397: {80 73 0} 
Flow 1406: {45 76 0} {76 44 1} {44 78 2} {78 84 3} {84 171 4} 
Flow 1431: {31 34 0} 
Flow 1525: {49 13 0} {13 100 1} 
Flow 1535: {80 26 0} 
Flow 1594: {50 13 0} {13 12 1} {12 17 2} {17 104 3} 
Flow 1650: {9 20 0} {20 10 1} {10 5 2} 
Flow 1678: {59 58 0} {58 44 1} {44 41 2} {41 128 3} 
Flow 1691: {51 52 0} {52 59 1} {59 67 2} 
Flow 1706: {58 9 0} {9 18 1} 
Flow 1731: {73 26 0} {26 113 1} 
Flow 1734: {55 30 0} {30 117 1} 
Flow 1851: {54 53 0} {53 55 1} {55 27 2} {27 114 3} 
Flow 1873: {56 14 0} {14 12 1} {12 16 2} {16 62 3} {62 149 4} 
Flow 1890: {74 83 0} 
Flow 1911: {36 28 0} {28 23 1} {23 110 2} 
Flow 1936: {41 44 0} {44 58 1} {58 145 2} 
Flow 2000: {61 14 0} 
Flow 2029: {62 16 0} {16 13 1} {13 49 2} {49 136 3} 
Flow 2049: {63 16 0} {16 12 1} {12 15 2} 
Flow 2076: {20 3 0} {3 90 1} 
Flow 2117: {64 65 0} {65 152 1} 
Flow 2123: {64 66 0} {66 81 1} {81 4 2} {4 20 3} 
Flow 2137: {20 2 0} {2 7 1} 
Flow 2158: {65 66 0} {66 82 1} {82 48 2} {48 32 3} 
Flow 2180: {65 64 0} {64 151 1} 
Flow 2198: {4 1 0} {1 88 1} 
Flow 2210: {16 103 0} 
Flow 2296: {67 44 0} {44 77 1} {77 46 2} {46 133 3} 
Flow 2312: {67 9 0} 
Flow 2336: {68 57 0} {57 69 1} {69 156 2} 
Flow 2368: {43 38 0} 
Flow 2386: {69 57 0} {57 70 1} {70 74 2} {74 161 3} 
Flow 2402: {72 9 0} {9 1 1} {1 11 2} {11 98 3} 
Flow 2409: {46 41 0} {41 43 1} 
Flow 2431: {72 46 0} {46 77 1} {77 44 2} {44 76 3} {76 163 4} 
Flow 2479: {73 30 0} {30 55 1} {55 142 2} 
Flow 2480: {57 54 0} {54 56 1} {56 143 2} 
Flow 2545: {7 1 0} 
Flow 2552: {79 7 0} {7 35 1} {35 10 2} {10 97 3} 
Flow 2574: {41 37 0} {37 124 1} 
Flow 2605: {79 6 0} {6 47 1} {47 9 2} {9 31 3} 
Flow 2605: {31 32 0} {32 48 1} 
Flow 2605: {82 169 0} 
Flow 2689: {48 34 0} {34 31 1} {31 9 2} {9 67 3} {67 154 4} 
Flow 2710: {20 8 0} {8 95 1} 
Flow 2717: {83 80 0} 
Flow 2726: {83 30 0} {30 27 1} 
Flow 2747: {83 74 1} {74 70 2} {70 57 3} {57 144 4} 
Flow 2770: {9 19 0} {19 3 1} 
Flow 2791: {31 33 0} {33 120 1} 
Flow 2797: {78 44 0} {44 67 1} {67 45 2} 
Flow 2803: {84 78 0} {78 46 1} {46 58 2} {58 59 3} {59 146 4} 
Flow 2829: {13 15 0} {15 102 1} 
Flow 2842: {22 30 0} 
Flow 2844: {23 24 0} {24 40 1} 
Flow 2859: {27 55 0} 
Flow 2903: {86 85 0} {85 23 1} {23 21 2} {21 22 3} {22 26 4} 
Flow 2905: {22 29 0} {29 116 1} 
Flow 2944: {6 35 0} {35 5 1} 
Flow 2947: {19 8 0} 
Flow 2972: {87 47 0} {47 41 1} {41 45 2} {45 132 3} 
Time taken running everything: 23 seconds
