networks/rf_174_2994/rf_174_2994-lower.sol
<?xml version = "1.0" encoding="UTF-8" standalone="yes"?>
<CPLEXSolution version="1.2">
 <header
   problemName="networks/rf_174_2994/rf_174_2994-lower.lp"
   solutionName="incumbent"
   solutionIndex="-1"
   objectiveValue="116"
   solutionTypeValue="3"
   solutionTypeString="primal"
   solutionStatusValue="101"
   solutionStatusString="integer optimal solution"
   solutionMethodString="mip"
   primalFeasible="1"
   dualFeasible="1"
   MIPNodes="0"
   MIPIterations="118"
   writeLevel="3"/>
 <quality
   epInt="1.0000000000000001e-05"
   epRHS="9.9999999999999995e-07"
   maxIntInfeas="0"
   maxPrimalInfeas="0"
   maxX="1"
   maxSlack="1"/>
 <variables>
  <variable name="Y(9,33)" index="1264" value="1"/>
  <variable name="Y(22,18)" index="3251" value="1"/>
  <variable name="Y(36,84)" index="5472" value="1"/>
  <variable name="Y(40,6)" index="6011" value="1"/>
  <variable name="Y(44,10)" index="6631" value="1"/>
  <variable name="Y(50,3)" index="7548" value="1"/>
  <variable name="Y(51,20)" index="7719" value="1"/>
  <variable name="Y(80,67)" index="12231" value="1"/>
  <variable name="Y(88,7)" index="13404" value="1"/>
  <variable name="Y(156,8)" index="23877" value="1"/>
  <variable name="Y(162,15)" index="24808" value="1"/>
  <variable name="Y(212,8)" index="32501" value="1"/>
  <variable name="Y(230,49)" index="35314" value="1"/>
  <variable name="Y(250,7)" index="38352" value="1"/>
  <variable name="Y(252,8)" index="38661" value="1"/>
  <variable name="Y(256,38)" index="39307" value="1"/>
  <variable name="Y(259,75)" index="39805" value="1"/>
  <variable name="Y(366,57)" index="56266" value="1"/>
  <variable name="Y(479,2)" index="73613" value="1"/>
  <variable name="Y(482,12)" index="74085" value="1"/>
  <variable name="Y(588,36)" index="90433" value="1"/>
  <variable name="Y(606,1)" index="93170" value="1"/>
  <variable name="Y(609,1)" index="93632" value="1"/>
  <variable name="Y(619,24)" index="95195" value="1"/>
  <variable name="Y(628,34)" index="96591" value="1"/>
  <variable name="Y(659,87)" index="101417" value="1"/>
  <variable name="Y(660,1)" index="101486" value="1"/>
  <variable name="Y(672,16)" index="103349" value="1"/>
  <variable name="Y(725,4)" index="111499" value="1"/>
  <variable name="Y(754,28)" index="115989" value="1"/>
  <variable name="Y(755,28)" index="116143" value="1"/>
  <variable name="Y(765,27)" index="117682" value="1"/>
  <variable name="Y(778,71)" index="119727" value="1"/>
  <variable name="Y(807,73)" index="124195" value="1"/>
  <variable name="Y(821,50)" index="126329" value="1"/>
  <variable name="Y(822,54)" index="126487" value="1"/>
  <variable name="Y(833,79)" index="128205" value="1"/>
  <variable name="Y(857,54)" index="131877" value="1"/>
  <variable name="Y(858,26)" index="132003" value="1"/>
  <variable name="Y(874,51)" index="134492" value="1"/>
  <variable name="Y(886,30)" index="136319" value="1"/>
  <variable name="Y(895,80)" index="137754" value="1"/>
  <variable name="Y(900,85)" index="138529" value="1"/>
  <variable name="Y(910,9)" index="139994" value="1"/>
  <variable name="Y(917,32)" index="141095" value="1"/>
  <variable name="Y(936,3)" index="143992" value="1"/>
  <variable name="Y(939,2)" index="144453" value="1"/>
  <variable name="Y(964,43)" index="148344" value="1"/>
  <variable name="Y(982,34)" index="151107" value="1"/>
  <variable name="Y(982,66)" index="151138" value="1"/>
  <variable name="Y(992,77)" index="152689" value="1"/>
  <variable name="Y(1002,11)" index="154164" value="1"/>
  <variable name="Y(1004,35)" index="154496" value="1"/>
  <variable name="Y(1005,7)" index="154622" value="1"/>
  <variable name="Y(1012,10)" index="155703" value="1"/>
  <variable name="Y(1060,25)" index="163110" value="1"/>
  <variable name="Y(1062,28)" index="163421" value="1"/>
  <variable name="Y(1072,40)" index="164973" value="1"/>
  <variable name="Y(1083,58)" index="166685" value="1"/>
  <variable name="Y(1088,66)" index="167462" value="1"/>
  <variable name="Y(1122,28)" index="172661" value="1"/>
  <variable name="Y(1135,41)" index="174676" value="1"/>
  <variable name="Y(1149,38)" index="176829" value="1"/>
  <variable name="Y(1203,56)" index="185163" value="1"/>
  <variable name="Y(1244,80)" index="191500" value="1"/>
  <variable name="Y(1252,42)" index="192695" value="1"/>
  <variable name="Y(1253,39)" index="192846" value="1"/>
  <variable name="Y(1255,41)" index="193156" value="1"/>
  <variable name="Y(1355,10)" index="208525" value="1"/>
  <variable name="Y(1380,41)" index="212406" value="1"/>
  <variable name="Y(1401,78)" index="215676" value="1"/>
  <variable name="Y(1422,21)" index="218854" value="1"/>
  <variable name="Y(1560,63)" index="240147" value="1"/>
  <variable name="Y(1594,17)" index="245338" value="1"/>
  <variable name="Y(1605,80)" index="247094" value="1"/>
  <variable name="Y(1649,19)" index="253810" value="1"/>
  <variable name="Y(1653,19)" index="254426" value="1"/>
  <variable name="Y(1667,22)" index="256585" value="1"/>
  <variable name="Y(1734,30)" index="266911" value="1"/>
  <variable name="Y(1851,55)" index="284954" value="1"/>
  <variable name="Y(1873,62)" index="288348" value="1"/>
  <variable name="Y(1983,45)" index="305272" value="1"/>
  <variable name="Y(1999,61)" index="307751" value="1"/>
  <variable name="Y(2010,12)" index="309397" value="1"/>
  <variable name="Y(2048,13)" index="315250" value="1"/>
  <variable name="Y(2097,31)" index="322814" value="1"/>
  <variable name="Y(2098,48)" index="322985" value="1"/>
  <variable name="Y(2117,65)" index="325927" value="1"/>
  <variable name="Y(2138,20)" index="329117" value="1"/>
  <variable name="Y(2150,23)" index="330968" value="1"/>
  <variable name="Y(2180,64)" index="335628" value="1"/>
  <variable name="Y(2192,81)" index="337493" value="1"/>
  <variable name="Y(2296,46)" index="353475" value="1"/>
  <variable name="Y(2336,69)" index="359657" value="1"/>
  <variable name="Y(2393,83)" index="368449" value="1"/>
  <variable name="Y(2402,11)" index="369764" value="1"/>
  <variable name="Y(2416,33)" index="371942" value="1"/>
  <variable name="Y(2426,59)" index="373508" value="1"/>
  <variable name="Y(2431,77)" index="374295" value="1"/>
  <variable name="Y(2479,55)" index="381666" value="1"/>
  <variable name="Y(2493,74)" index="383840" value="1"/>
  <variable name="Y(2537,76)" index="390618" value="1"/>
  <variable name="Y(2545,7)" index="391782" value="1"/>
  <variable name="Y(2552,7)" index="392860" value="1"/>
  <variable name="Y(2574,37)" index="396278" value="1"/>
  <variable name="Y(2605,82)" index="401096" value="1"/>
  <variable name="Y(2657,19)" index="409042" value="1"/>
  <variable name="Y(2707,5)" index="416728" value="1"/>
  <variable name="Y(2726,27)" index="419676" value="1"/>
  <variable name="Y(2755,68)" index="424182" value="1"/>
  <variable name="Y(2784,41)" index="428622" value="1"/>
  <variable name="Y(2903,22)" index="446929" value="1"/>
  <variable name="Y(2905,29)" index="447244" value="1"/>
  <variable name="Y(2906,22)" index="447391" value="1"/>
  <variable name="Y(2948,9)" index="453846" value="1"/>
  <variable name="Y(2985,70)" index="459604" value="1"/>
  <variable name="X(1,3,22)" index="461097" value="1"/>
  <variable name="X(1,4,9)" index="464078" value="1"/>
  <variable name="X(1,5,606)" index="467669" value="1"/>
  <variable name="X(1,6,40)" index="470097" value="1"/>
  <variable name="X(1,7,88)" index="473139" value="1"/>
  <variable name="X(1,8,609)" index="476654" value="1"/>
  <variable name="X(1,9,80)" index="479119" value="1"/>
  <variable name="X(1,10,44)" index="482077" value="1"/>
  <variable name="X(1,11,2402)" index="487429" value="1"/>
  <variable name="X(1,88,660)" index="488681" value="1"/>
  <variable name="X(2,1,22)" index="491037" value="1"/>
  <variable name="X(2,5,479)" index="494488" value="1"/>
  <variable name="X(2,7,939)" index="497942" value="1"/>
  <variable name="X(2,11,230)" index="500227" value="1"/>
  <variable name="X(2,20,36)" index="503027" value="1"/>
  <variable name="X(3,1,609)" index="506594" value="1"/>
  <variable name="X(3,18,22)" index="509001" value="1"/>
  <variable name="X(3,19,50)" index="512023" value="1"/>
  <variable name="X(3,20,51)" index="515018" value="1"/>
  <variable name="X(3,90,936)" index="518897" value="1"/>
  <variable name="X(4,1,725)" index="521680" value="1"/>
  <variable name="X(4,19,2657)" index="526606" value="1"/>
  <variable name="X(4,20,939)" index="527882" value="1"/>
  <variable name="X(4,33,9)" index="529946" value="1"/>
  <variable name="X(4,40,619)" index="533550" value="1"/>
  <variable name="X(4,43,256)" index="536181" value="1"/>
  <variable name="X(4,81,1088)" index="540007" value="1"/>
  <variable name="X(5,92,2707)" index="544620" value="1"/>
  <variable name="X(6,8,156)" index="545063" value="1"/>
  <variable name="X(6,35,2707)" index="550608" value="1"/>
  <variable name="X(6,47,2574)" index="553469" value="1"/>
  <variable name="X(6,79,833)" index="554722" value="1"/>
  <variable name="X(6,93,40)" index="556923" value="1"/>
  <variable name="X(7,1,2545)" index="562422" value="1"/>
  <variable name="X(7,2,250)" index="563121" value="1"/>
  <variable name="X(7,8,212)" index="566077" value="1"/>
  <variable name="X(7,35,2552)" index="571411" value="1"/>
  <variable name="X(7,79,88)" index="571941" value="1"/>
  <variable name="X(7,94,1005)" index="575852" value="1"/>
  <variable name="X(8,1,252)" index="578093" value="1"/>
  <variable name="X(8,7,250)" index="581085" value="1"/>
  <variable name="X(8,19,212)" index="584041" value="1"/>
  <variable name="X(8,20,256)" index="587079" value="1"/>
  <variable name="X(8,95,156)" index="589973" value="1"/>
  <variable name="X(9,1,2402)" index="595213" value="1"/>
  <variable name="X(9,18,910)" index="596715" value="1"/>
  <variable name="X(9,19,1649)" index="600448" value="1"/>
  <variable name="X(9,20,1355)" index="603148" value="1"/>
  <variable name="X(9,31,2416)" index="607203" value="1"/>
  <variable name="X(9,47,659)" index="608440" value="1"/>
  <variable name="X(9,58,36)" index="610811" value="1"/>
  <variable name="X(9,67,80)" index="613849" value="1"/>
  <variable name="X(9,75,259)" index="617022" value="1"/>
  <variable name="X(9,96,2948)" index="622705" value="1"/>
  <variable name="X(10,1,660)" index="623411" value="1"/>
  <variable name="X(10,5,1355)" index="627100" value="1"/>
  <variable name="X(10,20,1012)" index="629751" value="1"/>
  <variable name="X(10,97,44)" index="631777" value="1"/>
  <variable name="X(11,1,1002)" index="635729" value="1"/>
  <variable name="X(11,2,479)" index="638200" value="1"/>
  <variable name="X(11,13,230)" index="640945" value="1"/>
  <variable name="X(11,98,2402)" index="646111" value="1"/>
  <variable name="X(12,13,588)" index="647291" value="1"/>
  <variable name="X(12,14,366)" index="650063" value="1"/>
  <variable name="X(12,15,2010)" index="654701" value="1"/>
  <variable name="X(12,16,1873)" index="657558" value="1"/>
  <variable name="X(12,17,1594)" index="660273" value="1"/>
  <variable name="X(12,99,482)" index="662155" value="1"/>
  <variable name="X(13,11,479)" index="665146" value="1"/>
  <variable name="X(13,12,1594)" index="669255" value="1"/>
  <variable name="X(13,15,162)" index="670817" value="1"/>
  <variable name="X(13,16,1560)" index="675209" value="1"/>
  <variable name="X(13,40,588)" index="677231" value="1"/>
  <variable name="X(13,49,230)" index="679867" value="1"/>
  <variable name="X(13,50,821)" index="683452" value="1"/>
  <variable name="X(13,100,2048)" index="687673" value="1"/>
  <variable name="X(14,12,1873)" index="690492" value="1"/>
  <variable name="X(14,56,366)" index="691979" value="1"/>
  <variable name="X(15,12,482)" index="695089" value="1"/>
  <variable name="X(15,13,479)" index="698080" value="1"/>
  <variable name="X(15,102,162)" index="700757" value="1"/>
  <variable name="X(16,12,2010)" index="705599" value="1"/>
  <variable name="X(16,13,2048)" index="708631" value="1"/>
  <variable name="X(16,62,1873)" index="711450" value="1"/>
  <variable name="X(16,63,1560)" index="714131" value="1"/>
  <variable name="X(16,103,672)" index="716237" value="1"/>
  <variable name="X(17,12,588)" index="719147" value="1"/>
  <variable name="X(17,104,1594)" index="723147" value="1"/>
  <variable name="X(18,3,609)" index="725156" value="1"/>
  <variable name="X(18,9,659)" index="728200" value="1"/>
  <variable name="X(18,105,22)" index="730557" value="1"/>
  <variable name="X(19,3,1649)" index="735178" value="1"/>
  <variable name="X(19,4,619)" index="737142" value="1"/>
  <variable name="X(19,8,1653)" index="741170" value="1"/>
  <variable name="X(19,9,259)" index="742770" value="1"/>
  <variable name="X(19,106,2657)" index="748162" value="1"/>
  <variable name="X(20,2,939)" index="749438" value="1"/>
  <variable name="X(20,3,936)" index="752429" value="1"/>
  <variable name="X(20,4,256)" index="754743" value="1"/>
  <variable name="X(20,8,2138)" index="759619" value="1"/>
  <variable name="X(20,9,36)" index="760511" value="1"/>
  <variable name="X(20,10,1355)" index="764824" value="1"/>
  <variable name="X(20,107,51)" index="766514" value="1"/>
  <variable name="X(21,22,2905)" index="772362" value="1"/>
  <variable name="X(21,23,900)" index="773351" value="1"/>
  <variable name="X(21,108,1422)" index="776867" value="1"/>
  <variable name="X(22,21,900)" index="779339" value="1"/>
  <variable name="X(22,26,2903)" index="784336" value="1"/>
  <variable name="X(22,27,1667)" index="786094" value="1"/>
  <variable name="X(22,29,2905)" index="790326" value="1"/>
  <variable name="X(22,30,2906)" index="793321" value="1"/>
  <variable name="X(23,21,2905)" index="796314" value="1"/>
  <variable name="X(23,24,725)" index="797128" value="1"/>
  <variable name="X(23,28,754)" index="800151" value="1"/>
  <variable name="X(23,85,900)" index="803291" value="1"/>
  <variable name="X(23,110,2150)" index="807535" value="1"/>
  <variable name="X(24,21,1422)" index="809801" value="1"/>
  <variable name="X(24,36,778)" index="812151" value="1"/>
  <variable name="X(24,40,725)" index="815092" value="1"/>
  <variable name="X(24,111,619)" index="817980" value="1"/>
  <variable name="X(25,53,821)" index="821176" value="1"/>
  <variable name="X(25,54,822)" index="824171" value="1"/>
  <variable name="X(25,112,1060)" index="827403" value="1"/>
  <variable name="X(26,113,858)" index="830195" value="1"/>
  <variable name="X(27,55,765)" index="833096" value="1"/>
  <variable name="X(27,114,2726)" index="838051" value="1"/>
  <variable name="X(28,22,1062)" index="839381" value="1"/>
  <variable name="X(28,23,2150)" index="843463" value="1"/>
  <variable name="X(28,24,1122)" index="845429" value="1"/>
  <variable name="X(28,36,1060)" index="848361" value="1"/>
  <variable name="X(28,37,754)" index="851049" value="1"/>
  <variable name="X(28,38,755)" index="854044" value="1"/>
  <variable name="X(28,39,1253)" index="857536" value="1"/>
  <variable name="X(28,40,1072)" index="860349" value="1"/>
  <variable name="X(29,22,1667)" index="863938" value="1"/>
  <variable name="X(29,41,2707)" index="867972" value="1"/>
  <variable name="X(29,80,1605)" index="869864" value="1"/>
  <variable name="X(29,116,2905)" index="874158" value="1"/>
  <variable name="X(30,22,900)" index="875147" value="1"/>
  <variable name="X(30,27,2726)" index="879967" value="1"/>
  <variable name="X(30,55,2479)" index="882714" value="1"/>
  <variable name="X(30,73,886)" index="884115" value="1"/>
  <variable name="X(30,80,895)" index="887118" value="1"/>
  <variable name="X(30,83,858)" index="890075" value="1"/>
  <variable name="X(30,117,1734)" index="893945" value="1"/>
  <variable name="X(31,9,910)" index="896115" value="1"/>
  <variable name="X(31,32,2605)" index="900804" value="1"/>
  <variable name="X(31,33,2416)" index="903609" value="1"/>
  <variable name="X(31,34,628)" index="904815" value="1"/>
  <variable name="X(31,118,2097)" index="909278" value="1"/>
  <variable name="X(32,48,2605)" index="912780" value="1"/>
  <variable name="X(32,119,917)" index="914086" value="1"/>
  <variable name="X(33,4,939)" index="917102" value="1"/>
  <variable name="X(33,31,910)" index="920067" value="1"/>
  <variable name="X(33,32,917)" index="923068" value="1"/>
  <variable name="X(33,34,9)" index="925154" value="1"/>
  <variable name="X(33,120,2416)" index="930555" value="1"/>
  <variable name="X(34,31,2097)" index="933230" value="1"/>
  <variable name="X(34,33,939)" index="935066" value="1"/>
  <variable name="X(34,48,982)" index="938103" value="1"/>
  <variable name="X(34,121,628)" index="940743" value="1"/>
  <variable name="X(35,5,2707)" index="945816" value="1"/>
  <variable name="X(35,6,1004)" index="947107" value="1"/>
  <variable name="X(35,7,1005)" index="950102" value="1"/>
  <variable name="X(35,10,1012)" index="953103" value="1"/>
  <variable name="X(35,11,1002)" index="956087" value="1"/>
  <variable name="X(36,24,1422)" index="959501" value="1"/>
  <variable name="X(36,28,1253)" index="962326" value="1"/>
  <variable name="X(36,40,821)" index="964888" value="1"/>
  <variable name="X(36,43,778)" index="967839" value="1"/>
  <variable name="X(36,53,1060)" index="971115" value="1"/>
  <variable name="X(36,123,588)" index="973637" value="1"/>
  <variable name="X(37,28,1062)" index="977105" value="1"/>
  <variable name="X(37,41,1083)" index="980120" value="1"/>
  <variable name="X(37,43,1088)" index="983119" value="1"/>
  <variable name="X(37,124,2574)" index="987599" value="1"/>
  <variable name="X(38,28,1122)" index="989141" value="1"/>
  <variable name="X(38,41,1135)" index="992148" value="1"/>
  <variable name="X(38,43,1149)" index="995156" value="1"/>
  <variable name="X(38,125,256)" index="997257" value="1"/>
  <variable name="X(39,126,1253)" index="1001248" value="1"/>
  <variable name="X(40,4,725)" index="1003714" value="1"/>
  <variable name="X(40,13,821)" index="1006804" value="1"/>
  <variable name="X(40,24,619)" index="1009596" value="1"/>
  <variable name="X(40,28,2150)" index="1014121" value="1"/>
  <variable name="X(40,36,588)" index="1015553" value="1"/>
  <variable name="X(40,127,1072)" index="1019031" value="1"/>
  <variable name="X(41,29,1667)" index="1022620" value="1"/>
  <variable name="X(41,37,2574)" index="1026521" value="1"/>
  <variable name="X(41,38,1380)" index="1028321" value="1"/>
  <variable name="X(41,43,2784)" index="1032719" value="1"/>
  <variable name="X(41,44,1083)" index="1034012" value="1"/>
  <variable name="X(41,45,1255)" index="1037178" value="1"/>
  <variable name="X(41,46,778)" index="1039695" value="1"/>
  <variable name="X(41,47,2707)" index="1044618" value="1"/>
  <variable name="X(41,128,1135)" index="1046040" value="1"/>
  <variable name="X(42,38,1252)" index="1049151" value="1"/>
  <variable name="X(42,41,1255)" index="1052148" value="1"/>
  <variable name="X(42,43,1253)" index="1055140" value="1"/>
  <variable name="X(43,4,1088)" index="1057969" value="1"/>
  <variable name="X(43,36,1253)" index="1061128" value="1"/>
  <variable name="X(43,37,964)" index="1063833" value="1"/>
  <variable name="X(43,38,256)" index="1066119" value="1"/>
  <variable name="X(43,41,778)" index="1069635" value="1"/>
  <variable name="X(44,41,1667)" index="1073518" value="1"/>
  <variable name="X(44,58,1083)" index="1075928" value="1"/>
  <variable name="X(44,67,874)" index="1078713" value="1"/>
  <variable name="X(44,76,2537)" index="1083370" value="1"/>
  <variable name="X(44,77,2296)" index="1086123" value="1"/>
  <variable name="X(44,78,1401)" index="1088222" value="1"/>
  <variable name="X(45,41,1380)" index="1091195" value="1"/>
  <variable name="X(45,67,1355)" index="1094164" value="1"/>
  <variable name="X(45,76,1401)" index="1097204" value="1"/>
  <variable name="X(45,132,1983)" index="1100780" value="1"/>
  <variable name="X(46,41,2784)" index="1104575" value="1"/>
  <variable name="X(46,58,2426)" index="1107211" value="1"/>
  <variable name="X(46,71,778)" index="1108557" value="1"/>
  <variable name="X(46,77,2431)" index="1113204" value="1"/>
  <variable name="X(46,78,36)" index="1113803" value="1"/>
  <variable name="X(46,133,2296)" index="1119057" value="1"/>
  <variable name="X(47,6,2707)" index="1122462" value="1"/>
  <variable name="X(47,9,2948)" index="1125697" value="1"/>
  <variable name="X(47,41,2574)" index="1128317" value="1"/>
  <variable name="X(47,87,659)" index="1129396" value="1"/>
  <variable name="X(48,32,2098)" index="1133829" value="1"/>
  <variable name="X(48,34,2097)" index="1136822" value="1"/>
  <variable name="X(48,82,2605)" index="1140324" value="1"/>
  <variable name="X(49,13,1560)" index="1142273" value="1"/>
  <variable name="X(49,136,230)" index="1143937" value="1"/>
  <variable name="X(50,13,1594)" index="1148295" value="1"/>
  <variable name="X(50,137,821)" index="1150516" value="1"/>
  <variable name="X(51,52,1649)" index="1154338" value="1"/>
  <variable name="X(51,138,874)" index="1156557" value="1"/>
  <variable name="X(52,51,874)" index="1159551" value="1"/>
  <variable name="X(52,59,1649)" index="1163320" value="1"/>
  <variable name="X(53,25,1060)" index="1165725" value="1"/>
  <variable name="X(53,36,821)" index="1168480" value="1"/>
  <variable name="X(53,54,1203)" index="1171856" value="1"/>
  <variable name="X(53,55,1851)" index="1175498" value="1"/>
  <variable name="X(54,25,857)" index="1177498" value="1"/>
  <variable name="X(54,53,1851)" index="1181486" value="1"/>
  <variable name="X(54,56,1203)" index="1183832" value="1"/>
  <variable name="X(54,57,366)" index="1185989" value="1"/>
  <variable name="X(54,141,822)" index="1189439" value="1"/>
  <variable name="X(55,27,1851)" index="1193462" value="1"/>
  <variable name="X(55,30,1734)" index="1196339" value="1"/>
  <variable name="X(55,142,2479)" index="1200078" value="1"/>
  <variable name="X(56,14,1873)" index="1202466" value="1"/>
  <variable name="X(56,54,366)" index="1203953" value="1"/>
  <variable name="X(56,143,1203)" index="1207784" value="1"/>
  <variable name="X(57,54,857)" index="1210432" value="1"/>
  <variable name="X(57,68,2755)" index="1215324" value="1"/>
  <variable name="X(57,69,2336)" index="1217899" value="1"/>
  <variable name="X(57,70,2393)" index="1220950" value="1"/>
  <variable name="X(57,144,366)" index="1221917" value="1"/>
  <variable name="X(58,9,1649)" index="1226194" value="1"/>
  <variable name="X(58,44,1667)" index="1229206" value="1"/>
  <variable name="X(58,46,36)" index="1230569" value="1"/>
  <variable name="X(58,59,2426)" index="1235953" value="1"/>
  <variable name="X(58,145,1083)" index="1237604" value="1"/>
  <variable name="X(59,52,874)" index="1240389" value="1"/>
  <variable name="X(59,58,1649)" index="1244158" value="1"/>
  <variable name="X(59,67,1983)" index="1247486" value="1"/>
  <variable name="X(59,146,2426)" index="1250923" value="1"/>
  <variable name="X(61,14,1999)" index="1253490" value="1"/>
  <variable name="X(62,16,2010)" index="1256495" value="1"/>
  <variable name="X(62,149,1873)" index="1259352" value="1"/>
  <variable name="X(63,16,2048)" index="1262521" value="1"/>
  <variable name="X(63,150,1560)" index="1265027" value="1"/>
  <variable name="X(64,65,2117)" index="1268578" value="1"/>
  <variable name="X(64,66,2097)" index="1271552" value="1"/>
  <variable name="X(64,151,2180)" index="1274629" value="1"/>
  <variable name="X(65,64,2180)" index="1277623" value="1"/>
  <variable name="X(65,66,2192)" index="1280629" value="1"/>
  <variable name="X(65,152,2117)" index="1283548" value="1"/>
  <variable name="X(66,64,982)" index="1285407" value="1"/>
  <variable name="X(66,65,1088)" index="1288507" value="1"/>
  <variable name="X(66,81,2192)" index="1292605" value="1"/>
  <variable name="X(66,82,2097)" index="1295504" value="1"/>
  <variable name="X(67,9,1355)" index="1297756" value="1"/>
  <variable name="X(67,44,2296)" index="1301691" value="1"/>
  <variable name="X(67,45,1983)" index="1304372" value="1"/>
  <variable name="X(67,59,874)" index="1306257" value="1"/>
  <variable name="X(67,154,80)" index="1308457" value="1"/>
  <variable name="X(68,57,2336)" index="1313707" value="1"/>
  <variable name="X(68,155,2755)" index="1317120" value="1"/>
  <variable name="X(69,57,2393)" index="1319752" value="1"/>
  <variable name="X(69,156,2336)" index="1322689" value="1"/>
  <variable name="X(70,57,2755)" index="1326102" value="1"/>
  <variable name="X(70,73,807)" index="1327148" value="1"/>
  <variable name="X(70,74,2393)" index="1331728" value="1"/>
  <variable name="X(70,157,2985)" index="1335314" value="1"/>
  <variable name="X(71,158,778)" index="1336101" value="1"/>
  <variable name="X(72,9,2416)" index="1340733" value="1"/>
  <variable name="X(72,46,2426)" index="1343737" value="1"/>
  <variable name="X(73,26,807)" index="1345112" value="1"/>
  <variable name="X(73,30,2479)" index="1349778" value="1"/>
  <variable name="X(73,70,2985)" index="1353278" value="1"/>
  <variable name="X(73,80,2493)" index="1355780" value="1"/>
  <variable name="X(74,70,2755)" index="1359036" value="1"/>
  <variable name="X(74,83,2393)" index="1361668" value="1"/>
  <variable name="X(74,161,2493)" index="1364762" value="1"/>
  <variable name="X(75,162,259)" index="1365522" value="1"/>
  <variable name="X(76,44,1401)" index="1369658" value="1"/>
  <variable name="X(76,163,2537)" index="1373788" value="1"/>
  <variable name="X(77,44,2431)" index="1376676" value="1"/>
  <variable name="X(77,46,2296)" index="1379535" value="1"/>
  <variable name="X(77,164,992)" index="1381225" value="1"/>
  <variable name="X(78,44,2537)" index="1385764" value="1"/>
  <variable name="X(78,46,2784)" index="1389005" value="1"/>
  <variable name="X(78,84,36)" index="1389251" value="1"/>
  <variable name="X(78,165,1401)" index="1393610" value="1"/>
  <variable name="X(79,6,2574)" index="1397777" value="1"/>
  <variable name="X(79,7,2552)" index="1400749" value="1"/>
  <variable name="X(79,166,833)" index="1402024" value="1"/>
  <variable name="X(80,26,1244)" index="1405429" value="1"/>
  <variable name="X(80,29,2707)" index="1409886" value="1"/>
  <variable name="X(80,30,1605)" index="1411778" value="1"/>
  <variable name="X(80,73,2985)" index="1416152" value="1"/>
  <variable name="X(80,83,2493)" index="1418654" value="1"/>
  <variable name="X(80,167,895)" index="1420050" value="1"/>
  <variable name="X(81,4,2657)" index="1424806" value="1"/>
  <variable name="X(81,66,1088)" index="1426231" value="1"/>
  <variable name="X(81,168,2192)" index="1430329" value="1"/>
  <variable name="X(82,48,2097)" index="1433228" value="1"/>
  <variable name="X(82,66,982)" index="1435107" value="1"/>
  <variable name="X(82,169,2605)" index="1439724" value="1"/>
  <variable name="X(83,26,858)" index="1440971" value="1"/>
  <variable name="X(83,30,2726)" index="1445833" value="1"/>
  <variable name="X(83,74,2493)" index="1448594" value="1"/>
  <variable name="X(83,80,2707)" index="1451802" value="1"/>
  <variable name="X(83,170,2393)" index="1454482" value="1"/>
  <variable name="X(84,78,2784)" index="1457867" value="1"/>
  <variable name="X(84,171,36)" index="1458113" value="1"/>
  <variable name="X(85,23,2905)" index="1463976" value="1"/>
  <variable name="X(85,172,900)" index="1464965" value="1"/>
  <variable name="X(86,85,2905)" index="1469964" value="1"/>
  <variable name="X(87,47,2948)" index="1473001" value="1"/>
  <variable name="X(87,174,659)" index="1473706" value="1"/>
 </variables>
</CPLEXSolution>
